Reading model...
...model read.
creating competitive generators file...
...competitive generators recorded.
Loading data...
.. real-time data read.
Compiling instance...
...instance created.
Creating Offer Mitigation (model will solve as dispatch if TRUE)...
NOTE: storage offers will not be mitigated
...storage offer mitigation file created
Converting model to MPEC...
...converted
NOTE: initial MIP solve with only storage competitive to get feasible solution
Solving...

Welcome to IBM(R) ILOG(R) CPLEX(R) Interactive Optimizer 12.9.0.0
  with Simplex, Mixed Integer & Barrier Optimizers
5725-A06 5725-A29 5724-Y48 5724-Y49 5724-Y54 5724-Y55 5655-Y21
Copyright IBM Corp. 1988, 2019.  All Rights Reserved.

Type 'help' for a list of available commands.
Type 'help' followed by a command name for more
information on commands.

CPLEX> Logfile 'cplex.log' closed.
Logfile 'C:\Users\llavin\Desktop\test826\logs\tmpwgxpw1dv.cplex.log' open.
CPLEX> New value for parallel optimization mode: -1
CPLEX> New value for mixed integer optimality gap tolerance: 0.05
CPLEX> New value for feasibility tolerance: 1e-09
CPLEX> New value for deterministic time limit in ticks: 100000
CPLEX> Problem 'C:\Users\llavin\Desktop\test826\logs\tmpeu5amjky.pyomo.lp' read.
Read time = 0.52 sec. (28.85 ticks)
CPLEX> Problem name         : C:\Users\llavin\Desktop\test826\logs\tmpeu5amjky.pyomo.lp
Objective sense      : Maximize
Variables            :  107783  [Nneg: 1,  Box: 44058,  Free: 8928,
                                 Binary: 54796]
Objective nonzeros   :   19011
Linear constraints   :  246903  [Less: 82866,  Greater: 118424,  Equal: 45613]
  Nonzeros           :  619901
  RHS nonzeros       :  136515

Variables            : Min LB: -5000.000        Max UB: 1000000.       
Objective nonzeros   : Min   : 0.02500000       Max   : 208.3333       
Linear constraints   :
  Nonzeros           : Min   : 0.02500000       Max   : 1000000.       
  RHS nonzeros       : Min   : 0.02500000       Max   : 1000000.       
CPLEX> CPXPARAM_Parallel                                -1
CPXPARAM_Simplex_Tolerances_Feasibility          1.0000000000000001e-09
CPXPARAM_DetTimeLimit                            100000
CPXPARAM_MIP_Tolerances_MIPGap                   0.050000000000000003
Tried aggregator 3 times.
MIP Presolve eliminated 173802 rows and 34788 columns.
MIP Presolve added 7663 rows and 0 columns.
MIP Presolve modified 53520 coefficients.
Aggregator did 26018 substitutions.
Reduced MIP has 54746 rows, 46593 columns, and 157375 nonzeros.
Reduced MIP has 18463 binaries, 0 generals, 0 SOSs, and 0 indicators.
Presolve time = 0.63 sec. (363.13 ticks)
Probing fixed 764 vars, tightened 11545 bounds.
Probing time = 0.42 sec. (18.44 ticks)
Tried aggregator 2 times.
MIP Presolve eliminated 1723 rows and 1543 columns.
MIP Presolve modified 7884 coefficients.
Aggregator did 96 substitutions.
Reduced MIP has 52927 rows, 44954 columns, and 151318 nonzeros.
Reduced MIP has 17697 binaries, 0 generals, 0 SOSs, and 0 indicators.
Presolve time = 0.28 sec. (263.12 ticks)
Probing fixed 0 vars, tightened 1005 bounds.
Probing time = 0.59 sec. (22.63 ticks)
Clique table members: 95370.
MIP emphasis: balance optimality and feasibility.
MIP search method: dynamic search.
Parallel mode: opportunistic, using up to 32 threads.
Root relaxation solution time = 1.84 sec. (2969.32 ticks)

        Nodes                                         Cuts/
   Node  Left     Objective  IInf  Best Integer    Best Bound    ItCnt     Gap

      0     0     5294.5336   264                   5294.5336     9965         
      0     0     3433.2304    40                   Cuts: 125    10053         
      0     0     1590.1363    37                    Cuts: 57    10115         
      0     0     1471.6376    36                    Cuts: 41    10132         
      0     0     1470.6050    41                     Cuts: 7    10146         
      0     0     1468.4846    43                    Cuts: 54    10166         
      0     0     1467.8561    45                    Cuts: 22    10176         
      0     0     1467.2478    45                    Cuts: 10    10185         
      0     0     1466.6395    47                    Cuts: 31    10191         
*     0+   28                          785.1543      Cuts: 10            57.43%
Elapsed time = 14.77 sec. (9629.04 ticks, tree = 0.02 MB, solutions = 1)
    128    76     1207.7959    16     1015.8454     1236.0588    11314   21.68%
    566   463     1162.6039    22     1015.8454     1236.0588    16120   21.68%
    928    94     1099.7787    11     1015.8454     1236.0588    11528   21.68%
   1278   331     1148.7359    21     1015.8454     1236.0588    14476   21.68%
*  1478   386      integral     0     1181.0981     1236.0588    15242    4.65%

Cover cuts applied:  12
Implied bound cuts applied:  6
Flow cuts applied:  117
Mixed integer rounding cuts applied:  5
Lift and project cuts applied:  1
Gomory fractional cuts applied:  33

Root node processing (before b&c):
  Real time             =   11.25 sec. (9582.49 ticks)
Parallel b&c, 32 threads:
  Real time             =    9.84 sec. (1282.44 ticks)
  Sync time (average)   =    3.49 sec.
  Wait time (average)   =    0.00 sec.
                          ------------
Total (root+branch&cut) =   21.09 sec. (10864.92 ticks)

Solution pool: 11 solutions saved.

MIP - Integer optimal, tolerance (0.05/1e-06):  Objective =  1.1810980677e+03
Current MIP best bound =  1.2360588189e+03 (gap = 54.9608, 4.65%)
Solution time =   21.09 sec.  Iterations = 20538  Nodes = 1560 (181)
Deterministic time = 10865.23 ticks  (515.09 ticks/sec)

CPLEX> Incumbent solution written to file 'C:\Users\llavin\Desktop\test826\logs\tmphcn4wpoy.cplex.sol'.
CPLEX> NOTE: no warmstart specified for MIP iteration, default behavior is true
NOTE: resolving with all competitive generators using storage-only solution to warmstart
Solving...

Welcome to IBM(R) ILOG(R) CPLEX(R) Interactive Optimizer 12.9.0.0
  with Simplex, Mixed Integer & Barrier Optimizers
5725-A06 5725-A29 5724-Y48 5724-Y49 5724-Y54 5724-Y55 5655-Y21
Copyright IBM Corp. 1988, 2019.  All Rights Reserved.

Type 'help' for a list of available commands.
Type 'help' followed by a command name for more
information on commands.

CPLEX> Logfile 'cplex.log' closed.
Logfile 'C:\Users\llavin\Desktop\test826\logs\tmpu30n_cm2.cplex.log' open.
CPLEX> New value for parallel optimization mode: -1
CPLEX> New value for mixed integer optimality gap tolerance: 0.05
CPLEX> New value for feasibility tolerance: 1e-09
CPLEX> New value for deterministic time limit in ticks: 100000
CPLEX> Problem 'C:\Users\llavin\Desktop\test826\logs\tmpl7i4cxue.pyomo.lp' read.
Read time = 0.53 sec. (28.90 ticks)
CPLEX> MIP start file 'C:\Users\llavin\Desktop\test826\logs\tmpeih6usgx.cplex.mst' read.
CPLEX> Problem name         : C:\Users\llavin\Desktop\test826\logs\tmpl7i4cxue.pyomo.lp
Objective sense      : Maximize
Variables            :  109223  [Nneg: 1,  Box: 45498,  Free: 8928,
                                 Binary: 54796]
Objective nonzeros   :   20403
Linear constraints   :  246903  [Less: 82866,  Greater: 118424,  Equal: 45613]
  Nonzeros           :  619901
  RHS nonzeros       :  136515

Variables            : Min LB: -5000.000        Max UB: 1000000.       
Objective nonzeros   : Min   : 0.02500000       Max   : 208.3333       
Linear constraints   :
  Nonzeros           : Min   : 0.02500000       Max   : 1000000.       
  RHS nonzeros       : Min   : 0.02500000       Max   : 1000000.       
CPLEX> CPXPARAM_Parallel                                -1
CPXPARAM_Simplex_Tolerances_Feasibility          1.0000000000000001e-09
CPXPARAM_DetTimeLimit                            100000
CPXPARAM_MIP_Tolerances_MIPGap                   0.050000000000000003
Warning:  No solution found from 1 MIP starts.
Retaining values of one MIP start for possible repair.
Tried aggregator 3 times.
MIP Presolve eliminated 173802 rows and 36228 columns.
MIP Presolve added 7663 rows and 0 columns.
MIP Presolve modified 53520 coefficients.
Aggregator did 26018 substitutions.
Reduced MIP has 54746 rows, 46593 columns, and 157375 nonzeros.
Reduced MIP has 18463 binaries, 0 generals, 0 SOSs, and 0 indicators.
Presolve time = 0.67 sec. (363.87 ticks)
Probing fixed 764 vars, tightened 11545 bounds.
Probing time = 0.47 sec. (18.44 ticks)
Tried aggregator 2 times.
MIP Presolve eliminated 1723 rows and 1543 columns.
MIP Presolve modified 7884 coefficients.
Aggregator did 96 substitutions.
Reduced MIP has 52927 rows, 44954 columns, and 151318 nonzeros.
Reduced MIP has 17697 binaries, 0 generals, 0 SOSs, and 0 indicators.
Presolve time = 0.30 sec. (263.15 ticks)
Probing fixed 0 vars, tightened 1005 bounds.
Probing time = 0.64 sec. (22.63 ticks)
Clique table members: 95370.
MIP emphasis: balance optimality and feasibility.
MIP search method: dynamic search.
Parallel mode: opportunistic, using up to 32 threads.
Root relaxation solution time = 1.89 sec. (3012.12 ticks)

        Nodes                                         Cuts/
   Node  Left     Objective  IInf  Best Integer    Best Bound    ItCnt     Gap

      0     0    14266.7368   411                  14266.7368    10952         
      0     0    12396.0353   158                   Cuts: 181    11167         
      0     0    10957.8525   162                   Cuts: 168    11283         
      0     0    10660.6761   154                    Cuts: 84    11348         
      0     0    10657.2050   160                    Cuts: 44    11396         
      0     0    10649.9296   161                    Cuts: 45    11439         
      0     0    10648.7644   166                    Cuts: 49    11453         
      0     0    10648.2670   171                    Cuts: 21    11463         
      0     0    10647.6789   168                    Cuts: 10    11470         
Repair heuristic found nothing.
      0    20     9124.6396   135                     Cuts: 7    11863         
Elapsed time = 20.50 sec. (12041.85 ticks, tree = 0.02 MB, solutions = 0)
    216    61    10018.2323   137                  10240.6992    12202         
    470    66    10104.8416   125                  10240.6992    12293         
    763   178    10087.5203   124                  10240.6992    13571         
   1021   746    10169.5882   128                  10240.6992    21946         
   1353   930     9880.1710   102                  10240.6992    25255         
   1625   981     9737.4624    82                  10240.6992    25830         
   1866  1659     7958.0284   121                  10240.6992    44138         
   2057  1765     5433.4807    47                  10240.6992    47655         
   2255  1577     7413.8925    98                  10240.6992    41014         
   3151  2502     6330.0769    69                  10240.6992    78239         
Elapsed time = 40.81 sec. (15151.15 ticks, tree = 140.73 MB, solutions = 0)
   4188  3415    -4686.7485   124                  10240.6992   110777         
   5084  4482    -2214.6365    97                  10240.6992   157253         
   5919  4990     7519.7998    39                  10240.6992   184525         
   6791  5717     5895.7276    71                  10240.6992   221884         
   7744  6670     3784.8967    46                  10240.6992   271904         
   8505  6961    -3905.0099    44                  10240.6992   287283         
   8625  7827    10549.2736   149                  10240.6992   369471         
   8698    27     7985.4351   119                  10102.4900   369967         
   8822    91    10050.9859   132                  10102.4900   371586         
   9021   127     9869.8973   136                  10102.4900   372046         
Elapsed time = 138.88 sec. (42787.37 ticks, tree = 3.37 MB, solutions = 0)
   9378   244     9135.5388   131                  10102.4900   376412         
   9812  1113     7843.9627    77                  10102.4900   403620         
  10338  1010     9135.4431   130                  10102.4900   400981         
  10863  1106     1923.3183   127                  10102.4900   407289         
  11405   924     9594.5642   133                  10102.4900   397844         
  12093  1260     4856.6806   176                  10102.4900   416934         
  12738  4799    10027.3363   116                  10102.4900   536434         
  13368  3029     3178.6415   190                  10102.4900   488622         
  14122  4875     9833.0018    74                  10102.4900   536906         
  14808  3753     8142.4865    92                  10102.4900   514008         
Elapsed time = 228.14 sec. (52338.90 ticks, tree = 57.56 MB, solutions = 0)
  15875  4364     7789.3849   113                  10102.4900   528011         
  16709  2603     6425.2957   135                  10102.4900   484362         
  17529  3321     6251.3758   149                  10102.4900   503434         
  18244  3151     7728.5929    84                  10102.4900   494072         
  18801  6014    10049.4869   144                  10102.4900   576734         
  19264  6795     7773.0413   117                  10102.4900   598455         
  19825  6018    infeasible                        10102.4900   578340         
  20373  5927     3997.8618   142                  10102.4900   571517         
  20757  5400     9851.0013   121                  10102.4900   561449         
  21179  6720      455.7707   104                  10102.4900   591552         
Elapsed time = 244.58 sec. (61896.77 ticks, tree = 107.77 MB, solutions = 0)
  21340  6403     9596.5720   116                  10102.4900   587829         
  21402  6866    infeasible                        10102.4900   606019         
  21403 11347    infeasible                        10102.4900   747713         
  21469   114     8728.1722   142                  10102.4900   750862         
  21571    44     8704.9121   155                  10102.4900   748783         
  21667   119     8635.7230   133                  10102.4900   751021         
  21777    98     7961.2259   135                  10102.4900   750197         
  21897   237     5242.8731   194                  10102.4900   757350         
  22108   296     8563.6822   141                  10102.4900   757874         
  22398   584     8961.3727   116                  10102.4900   768533         
Elapsed time = 331.05 sec. (88617.94 ticks, tree = 19.54 MB, solutions = 0)
  22748   324     9752.5813   127                  10102.4900   759015         
  23130   923     8151.9333   153                  10102.4900   774527         
  23500  1153     4696.3642   125                  10102.4900   778730         
  23901  1922    infeasible                        10102.4900   789872         
  24205  1183     4389.1314   140                  10102.4900   780014         
  24522  2266     8469.7937    92                  10102.4900   799448         
  24818  2227     8195.4130   122                  10102.4900   798869         
  25085  2084     8898.4160   126                  10102.4900   797976         
  25309  2310   -54908.3966   153                  10102.4900   801686         
  25504  2038    -8331.9775   154                  10102.4900   795934         
Elapsed time = 382.72 sec. (98208.07 ticks, tree = 178.97 MB, solutions = 0)
  25652  2520    10056.0807   136                  10102.4900   811264         

Clique cuts applied:  3
Cover cuts applied:  24
Implied bound cuts applied:  12
Flow cuts applied:  139
Mixed integer rounding cuts applied:  5
Zero-half cuts applied:  4
Gomory fractional cuts applied:  12

Root node processing (before b&c):
  Real time             =   15.06 sec. (11870.93 ticks)
Parallel b&c, 32 threads:
  Real time             =  368.56 sec. (88200.62 ticks)
  Sync time (average)   =    6.98 sec.
  Wait time (average)   =    0.69 sec.
                          ------------
Total (root+branch&cut) =  383.63 sec. (100071.56 ticks)


MIP - Deterministic time limit exceeded, no integer solution.
Current MIP best bound =  1.0102490042e+04 (gap is infinite)
Solution time =  383.66 sec.  Iterations = 855366  Nodes = 25734 (4053)
Deterministic time = 100071.87 ticks  (260.84 ticks/sec)

CPLEX> CPLEX Error  1217: No solution exists.
No file written.
CPLEX> 